RAW/CMTT/fspd/CMT7T.vrp_seed-3.out
903.0474612	1.3	28.813
