RAW/CMTT/fspd/CMT7T.vrp_seed-3.sol
Route #1: 68 62 22 64 42 1 73
Route #2: 4 45 29 5 47 48 30
Route #3: 38 65 66 11 53
Route #4: 6 33 43 41 56 23 63
Route #5: 67 34 52 54 13 57 15 27
Route #6: 7 35 14 59 19 8 46
Route #7: 17 40 44 3 24 49 16 51
Route #8: 36 71 60 70 20 37
Route #9: 2 28 61 69 21 74 75
Route #10: 12 72 39 31 10 58 26
Route #11: 32 50 18 55 25 9
Cost 903.047461